presolving:
(round 1, fast)       0 del vars, 0 del conss, 0 add conss, 6907 chg bounds, 0 chg sides, 0 chg coeffs, 0 upgd conss, 0 impls, 0 clqs
(round 2, fast)       10 del vars, 1 del conss, 0 add conss, 6907 chg bounds, 0 chg sides, 0 chg coeffs, 10 upgd conss, 0 impls, 0 clqs
   (3.0s) running MILP presolver
   (3.1s) MILP presolver (2 rounds): 0 aggregations, 0 fixings, 0 bound changes
(round 3, medium)     10 del vars, 1078 del conss, 1068 add conss, 6907 chg bounds, 0 chg sides, 0 chg coeffs, 10 upgd conss, 0 impls, 0 clqs
   (3.3s) sparsify aborted: 660/27797 (2.4%) nonzeros canceled - in total 660 canceled nonzeros, 1089 changed coefficients, 0 added nonzeros
(round 4, exhaustive) 10 del vars, 1078 del conss, 1068 add conss, 6907 chg bounds, 0 chg sides, 1089 chg coeffs, 10 upgd conss, 0 impls, 0 clqs
   (3.3s) probing: 51/209 (24.4%) - 0 fixings, 0 aggregations, 0 implications, 0 bound changes
   (3.3s) probing aborted: 50/50 successive totally useless probings
   (3.4s) symmetry computation started: requiring (bin +, int -, cont +), (fixed: bin -, int +, cont -)
   (3.4s) no symmetry present
presolving (5 rounds: 5 fast, 3 medium, 2 exhaustive):
 10 deleted vars, 1078 deleted constraints, 1068 added constraints, 6907 tightened bounds, 0 added holes, 0 changed sides, 1089 changed coefficients
 0 implications, 0 cliques
presolved problem has 7106 variables (209 bin, 0 int, 0 impl, 6897 cont) and 1068 constraints
   1068 constraints of type <linear>
Presolving Time: 3.15

 time | node  | left  |LP iter|LP it/n|mem/heur|mdpt |vars |cons |rows |cuts |sepa|confs|strbr|  dualbound   | primalbound  |  gap   | compl. 
p 3.5s|     1 |     0 |   261 |     - |   locks|   0 |7106 |1068 |1068 |   0 |  0 |   0 |   0 | 5.284660e+02 | 7.142212e+05 |  Large | unknown
i 3.5s|     1 |     0 |   261 |     - |  oneopt|   0 |7106 |1068 |1068 |   0 |  0 |   0 |   0 | 5.284660e+02 | 2.583252e+05 |  Large | unknown
  3.7s|     1 |     0 |  1264 |     - |   132M |   0 |7106 |1068 |1068 |   0 |  0 |   0 |   0 | 1.449663e+05 | 2.583252e+05 |  78.20%| unknown
r 3.7s|     1 |     0 |  1264 |     - |simplero|   0 |7106 |1068 |1068 |   0 |  0 |   0 |   0 | 1.449663e+05 | 2.476405e+05 |  70.83%| unknown
  3.8s|     1 |     0 |  1566 |     - |   135M |   0 |7106 |1068 |1098 |  30 |  1 |   0 |   0 | 1.643366e+05 | 2.476405e+05 |  50.69%| unknown
  3.9s|     1 |     0 |  1710 |     - |   135M |   0 |7106 |1068 |1116 |  48 |  2 |   0 |   0 | 1.719653e+05 | 2.476405e+05 |  44.01%| unknown
  4.0s|     1 |     0 |  1810 |     - |   136M |   0 |7106 |1068 |1131 |  63 |  3 |   0 |   0 | 1.763746e+05 | 2.476405e+05 |  40.41%| unknown
  4.1s|     1 |     0 |  1950 |     - |   137M |   0 |7106 |1068 |1143 |  75 |  4 |   0 |   0 | 1.804155e+05 | 2.476405e+05 |  37.26%| unknown
  4.3s|     1 |     0 |  2047 |     - |   138M |   0 |7106 |1068 |1148 |  80 |  5 |   0 |   0 | 1.825280e+05 | 2.476405e+05 |  35.67%| unknown
  4.5s|     1 |     0 |  2269 |     - |   138M |   0 |7106 |1068 |1175 | 107 |  6 |   0 |   0 | 1.860921e+05 | 2.476405e+05 |  33.07%| unknown
  4.7s|     1 |     0 |  2471 |     - |   138M |   0 |7106 |1068 |1191 | 123 |  7 |   0 |   0 | 1.882865e+05 | 2.476405e+05 |  31.52%| unknown
  4.9s|     1 |     0 |  2555 |     - |   138M |   0 |7106 |1068 |1204 | 136 |  8 |   0 |   0 | 1.889103e+05 | 2.476405e+05 |  31.09%| unknown
  5.1s|     1 |     0 |  2712 |     - |   138M |   0 |7106 |1068 |1215 | 147 |  9 |   0 |   0 | 1.900171e+05 | 2.476405e+05 |  30.33%| unknown
  5.3s|     1 |     0 |  2869 |     - |   139M |   0 |7106 |1068 |1228 | 160 | 10 |   0 |   0 | 1.910228e+05 | 2.476405e+05 |  29.64%| unknown
  5.5s|     1 |     0 |  3092 |     - |   139M |   0 |7106 |1068 |1238 | 170 | 11 |   0 |   0 | 1.920948e+05 | 2.476405e+05 |  28.92%| unknown
 time | node  | left  |LP iter|LP it/n|mem/heur|mdpt |vars |cons |rows |cuts |sepa|confs|strbr|  dualbound   | primalbound  |  gap   | compl. 
  5.7s|     1 |     0 |  3359 |     - |   139M |   0 |7106 |1068 |1255 | 187 | 12 |   0 |   0 | 1.930043e+05 | 2.476405e+05 |  28.31%| unknown
  5.9s|     1 |     0 |  3580 |     - |   141M |   0 |7106 |1068 |1277 | 209 | 13 |   0 |   0 | 1.937489e+05 | 2.476405e+05 |  27.82%| unknown
  6.1s|     1 |     0 |  3761 |     - |   141M |   0 |7106 |1068 |1294 | 226 | 14 |   0 |   0 | 1.943163e+05 | 2.476405e+05 |  27.44%| unknown
  6.3s|     1 |     0 |  3972 |     - |   141M |   0 |7106 |1068 |1306 | 238 | 15 |   0 |   0 | 1.947171e+05 | 2.476405e+05 |  27.18%| unknown
  6.5s|     1 |     0 |  4034 |     - |   141M |   0 |7106 |1068 |1298 | 244 | 16 |   0 |   0 | 1.947684e+05 | 2.476405e+05 |  27.15%| unknown
  6.6s|     1 |     0 |  4113 |     - |   141M |   0 |7106 |1068 |1301 | 247 | 17 |   0 |   0 | 1.948952e+05 | 2.476405e+05 |  27.06%| unknown
  6.9s|     1 |     0 |  4311 |     - |   141M |   0 |7106 |1068 |1314 | 260 | 18 |   0 |   0 | 1.949930e+05 | 2.476405e+05 |  27.00%| unknown
  7.1s|     1 |     0 |  4484 |     - |   142M |   0 |7106 |1068 |1321 | 267 | 19 |   0 |   0 | 1.951075e+05 | 2.476405e+05 |  26.93%| unknown
  7.2s|     1 |     0 |  4557 |     - |   142M |   0 |7106 |1068 |1324 | 270 | 20 |   0 |   0 | 1.951501e+05 | 2.476405e+05 |  26.90%| unknown
  7.4s|     1 |     0 |  4676 |     - |   142M |   0 |7106 |1068 |1340 | 286 | 21 |   0 |   0 | 1.952105e+05 | 2.476405e+05 |  26.86%| unknown
  7.6s|     1 |     0 |  4788 |     - |   142M |   0 |7106 |1068 |1320 | 290 | 22 |   0 |   0 | 1.952332e+05 | 2.476405e+05 |  26.84%| unknown
  7.8s|     1 |     0 |  4890 |     - |   142M |   0 |7106 |1068 |1327 | 297 | 23 |   0 |   0 | 1.952795e+05 | 2.476405e+05 |  26.81%| unknown
  8.0s|     1 |     0 |  5062 |     - |   142M |   0 |7106 |1068 |1336 | 306 | 24 |   0 |   0 | 1.953236e+05 | 2.476405e+05 |  26.78%| unknown
  8.2s|     1 |     0 |  5134 |     - |   142M |   0 |7106 |1068 |1344 | 314 | 25 |   0 |   0 | 1.953443e+05 | 2.476405e+05 |  26.77%| unknown
  8.4s|     1 |     0 |  5218 |     - |   143M |   0 |7106 |1068 |1353 | 323 | 26 |   0 |   0 | 1.953880e+05 | 2.476405e+05 |  26.74%| unknown
 time | node  | left  |LP iter|LP it/n|mem/heur|mdpt |vars |cons |rows |cuts |sepa|confs|strbr|  dualbound   | primalbound  |  gap   | compl. 
  8.6s|     1 |     0 |  5369 |     - |   144M |   0 |7106 |1068 |1368 | 338 | 27 |   0 |   0 | 1.954509e+05 | 2.476405e+05 |  26.70%| unknown
  8.8s|     1 |     0 |  5494 |     - |   144M |   0 |7106 |1068 |1345 | 350 | 28 |   0 |   0 | 1.954946e+05 | 2.476405e+05 |  26.67%| unknown
  9.0s|     1 |     0 |  5662 |     - |   144M |   0 |7106 |1068 |1358 | 363 | 29 |   0 |   0 | 1.955238e+05 | 2.476405e+05 |  26.65%| unknown
  9.1s|     1 |     0 |  5738 |     - |   144M |   0 |7106 |1068 |1361 | 366 | 30 |   0 |   0 | 1.955302e+05 | 2.476405e+05 |  26.65%| unknown
  9.2s|     1 |     0 |  5803 |     - |   144M |   0 |7106 |1068 |1365 | 370 | 31 |   0 |   0 | 1.955376e+05 | 2.476405e+05 |  26.65%| unknown
  9.3s|     1 |     0 |  5913 |     - |   144M |   0 |7106 |1068 |1369 | 374 | 32 |   0 |   0 | 1.955533e+05 | 2.476405e+05 |  26.64%| unknown
  9.4s|     1 |     0 |  6001 |     - |   144M |   0 |7106 |1068 |1374 | 379 | 33 |   0 |   0 | 1.955560e+05 | 2.476405e+05 |  26.63%| unknown
  9.5s|     1 |     0 |  6002 |     - |   144M |   0 |7106 |1068 |1344 | 380 | 34 |   0 |   0 | 1.955562e+05 | 2.476405e+05 |  26.63%| unknown
r10.3s|     1 |     0 |  8061 |     - |intshift|   0 |7106 |1068 |1344 | 380 | 36 |   0 |   0 | 1.955562e+05 | 2.412823e+05 |  23.38%| unknown
d14.0s|     1 |     0 | 14827 |     - |farkasdi|   0 |7106 |1068 |1344 |   0 | 36 |   0 |   0 | 1.955562e+05 | 2.408331e+05 |  23.15%| unknown
d14.0s|     1 |     0 | 14913 |     - |farkasdi|   0 |7106 |1068 |1344 |   0 | 36 |   0 |   0 | 1.955562e+05 | 2.384294e+05 |  21.92%| unknown
L18.9s|     1 |     0 | 15113 |     - |    rens|   0 |7106 |1068 |1344 | 380 | 36 |   0 |   0 | 1.955562e+05 | 1.973799e+05 |   0.93%| unknown
 19.1s|     1 |     0 | 15113 |     - |   150M |   0 |7106 |1068 |1344 | 380 | 36 |   0 |   0 | 1.955562e+05 | 1.973799e+05 |   0.93%| unknown
 19.1s|     1 |     0 | 15120 |     - |   151M |   0 |7106 |1068 |1344 | 380 | 36 |   0 |   0 | 1.955566e+05 | 1.973799e+05 |   0.93%| unknown
 19.2s|     1 |     0 | 15177 |     - |   151M |   0 |7106 |1068 |1339 | 385 | 37 |   0 |   0 | 1.955579e+05 | 1.973799e+05 |   0.93%| unknown
 time | node  | left  |LP iter|LP it/n|mem/heur|mdpt |vars |cons |rows |cuts |sepa|confs|strbr|  dualbound   | primalbound  |  gap   | compl. 
 19.2s|     1 |     0 | 15177 |     - |   151M |   0 |7106 |1068 |1339 | 385 | 37 |   0 |   0 | 1.955579e+05 | 1.973799e+05 |   0.93%| unknown
 19.3s|     1 |     0 | 15240 |     - |   151M |   0 |7106 |1068 |1344 | 390 | 38 |   0 |   0 | 1.955599e+05 | 1.973799e+05 |   0.93%| unknown
 19.3s|     1 |     0 | 15250 |     - |   151M |   0 |7106 |1068 |1350 | 396 | 39 |   0 |   0 | 1.955603e+05 | 1.973799e+05 |   0.93%| unknown
 19.3s|     1 |     0 | 15250 |     - |   151M |   0 |7106 |1030 |1350 | 396 | 39 |   0 |   0 | 1.955603e+05 | 1.973799e+05 |   0.93%| unknown
 19.6s|     1 |     0 | 15516 |     - |   151M |   0 |7106 |1030 |1355 | 401 | 40 |   0 |   0 | 1.955810e+05 | 1.973799e+05 |   0.92%| unknown
(run 1, node 1) restarting after 38 global fixings of integer variables

(restart) converted 279 cuts from the global cut pool into linear constraints

presolving:
(round 1, fast)       1292 del vars, 0 del conss, 0 add conss, 0 chg bounds, 0 chg sides, 0 chg coeffs, 0 upgd conss, 0 impls, 0 clqs
   (19.9s) running MILP presolver
   (19.9s) MILP presolver found nothing
(round 2, exhaustive) 1292 del vars, 0 del conss, 0 add conss, 0 chg bounds, 0 chg sides, 0 chg coeffs, 3 upgd conss, 0 impls, 0 clqs
presolving (3 rounds: 3 fast, 2 medium, 2 exhaustive):
 1292 deleted vars, 0 deleted constraints, 0 added constraints, 0 tightened bounds, 0 added holes, 0 changed sides, 0 changed coefficients
 0 implications, 0 cliques
presolved problem has 5814 variables (171 bin, 0 int, 0 impl, 5643 cont) and 1309 constraints
   1306 constraints of type <linear>
      3 constraints of type <logicor>
Presolving Time: 3.45
transformed 67/100 original solutions to the transformed problem space

 time | node  | left  |LP iter|LP it/n|mem/heur|mdpt |vars |cons |rows |cuts |sepa|confs|strbr|  dualbound   | primalbound  |  gap   | compl. 
 22.0s|     1 |     0 | 20709 |     - |   163M |   0 |5814 |1309 |1309 |   0 |  0 |   0 |   0 | 1.955810e+05 | 1.973799e+05 |   0.92%| unknown
 22.6s|     1 |     0 | 21546 |     - |   163M |   0 |5814 |1309 |1337 |  28 |  1 |   0 |   0 | 1.955810e+05 | 1.973799e+05 |   0.92%| unknown
 22.6s|     1 |     0 | 21546 |     - |   163M |   0 |5814 |1309 |1337 |  28 |  1 |   0 |   0 | 1.955810e+05 | 1.973799e+05 |   0.92%| unknown
 22.9s|     1 |     0 | 21843 |     - |   163M |   0 |5814 |1309 |1355 |  46 |  2 |   0 |   0 | 1.955810e+05 | 1.973799e+05 |   0.92%| unknown
 22.9s|     1 |     0 | 21843 |     - |   163M |   0 |5814 |1309 |1355 |  46 |  2 |   0 |   0 | 1.955810e+05 | 1.973799e+05 |   0.92%| unknown
 23.1s|     1 |     0 | 22051 |     - |   163M |   0 |5814 |1309 |1369 |  60 |  3 |   0 |   0 | 1.955810e+05 | 1.973799e+05 |   0.92%| unknown
 23.4s|     1 |     0 | 22219 |     - |   164M |   0 |5814 |1309 |1382 |  73 |  4 |   0 |   0 | 1.955810e+05 | 1.973799e+05 |   0.92%| unknown
 23.6s|     1 |     0 | 22394 |     - |   164M |   0 |5814 |1309 |1393 |  84 |  5 |   0 |   0 | 1.955810e+05 | 1.973799e+05 |   0.92%| unknown
 23.8s|     1 |     0 | 22486 |     - |   164M |   0 |5814 |1309 |1400 |  91 |  6 |   0 |   0 | 1.955810e+05 | 1.973799e+05 |   0.92%| unknown
 24.0s|     1 |     0 | 22534 |     - |   164M |   0 |5814 |1309 |1405 |  96 |  7 |   0 |   0 | 1.955810e+05 | 1.973799e+05 |   0.92%| unknown
 24.2s|     1 |     0 | 22567 |     - |   164M |   0 |5814 |1309 |1408 |  99 |  8 |   0 |   0 | 1.955810e+05 | 1.973799e+05 |   0.92%| unknown
 24.4s|     1 |     0 | 22598 |     - |   164M |   0 |5814 |1309 |1411 | 102 |  9 |   0 |   0 | 1.955810e+05 | 1.973799e+05 |   0.92%| unknown
 24.5s|     1 |     0 | 22630 |     - |   164M |   0 |5814 |1309 |1412 | 103 | 10 |   0 |   0 | 1.955810e+05 | 1.973799e+05 |   0.92%| unknown
 24.7s|     1 |     0 | 22688 |     - |   165M |   0 |5814 |1309 |1415 | 106 | 11 |   0 |   0 | 1.955810e+05 | 1.973799e+05 |   0.92%| unknown
 24.7s|     1 |     0 | 22688 |     - |   165M |   0 |5814 |1309 |1415 | 106 | 11 |   0 |   0 | 1.955810e+05 | 1.973799e+05 |   0.92%| unknown
 time | node  | left  |LP iter|LP it/n|mem/heur|mdpt |vars |cons |rows |cuts |sepa|confs|strbr|  dualbound   | primalbound  |  gap   | compl. 
 24.8s|     1 |     0 | 22694 |     - |   165M |   0 |5814 |1309 |1416 | 107 | 12 |   0 |   0 | 1.955810e+05 | 1.973799e+05 |   0.92%| unknown
 24.9s|     1 |     0 | 22697 |     - |   165M |   0 |5814 |1309 |1417 | 108 | 13 |   0 |   0 | 1.955810e+05 | 1.973799e+05 |   0.92%| unknown
 25.2s|     1 |     0 | 22721 |     - |   165M |   0 |5814 |1309 |1314 | 115 | 14 |   0 |   0 | 1.955810e+05 | 1.973799e+05 |   0.92%| unknown
 25.2s|     1 |     0 | 22721 |     - |   165M |   0 |5814 |1299 |1314 | 115 | 14 |   0 |   0 | 1.955810e+05 | 1.973799e+05 |   0.92%| unknown
 25.3s|     1 |     0 | 22796 |     - |   165M |   0 |5814 |1299 |1317 | 118 | 15 |   0 |   0 | 1.955810e+05 | 1.973799e+05 |   0.92%| unknown
 25.5s|     1 |     0 | 22883 |     - |   165M |   0 |5814 |1299 |1323 | 124 | 16 |   0 |   0 | 1.955810e+05 | 1.973799e+05 |   0.92%| unknown
 25.6s|     1 |     0 | 22977 |     - |   165M |   0 |5814 |1299 |1326 | 127 | 17 |   0 |   0 | 1.955810e+05 | 1.973799e+05 |   0.92%| unknown
 25.7s|     1 |     0 | 22977 |     - |   165M |   0 |5814 |1299 |1321 | 127 | 17 |   0 |   0 | 1.955810e+05 | 1.973799e+05 |   0.92%| unknown
 25.8s|     1 |     0 | 23033 |     - |   165M |   0 |5814 |1299 |1326 | 132 | 18 |   0 |   0 | 1.955810e+05 | 1.973799e+05 |   0.92%| unknown
 26.0s|     1 |     0 | 23111 |     - |   165M |   0 |5814 |1299 |1332 | 138 | 19 |   0 |   0 | 1.955810e+05 | 1.973799e+05 |   0.92%| unknown
 26.1s|     1 |     0 | 23143 |     - |   166M |   0 |5814 |1299 |1305 | 141 | 20 |   0 |   0 | 1.955810e+05 | 1.973799e+05 |   0.92%| unknown
 26.2s|     1 |     0 | 23158 |     - |   166M |   0 |5814 |1299 |1308 | 144 | 21 |   0 |   0 | 1.955810e+05 | 1.973799e+05 |   0.92%| unknown
 26.3s|     1 |     0 | 23175 |     - |   166M |   0 |5814 |1299 |1309 | 145 | 22 |   0 |   0 | 1.955810e+05 | 1.973799e+05 |   0.92%| unknown
 26.4s|     1 |     0 | 23180 |     - |   166M |   0 |5814 |1299 |1312 | 148 | 23 |   0 |   0 | 1.955810e+05 | 1.973799e+05 |   0.92%| unknown
 26.4s|     1 |     0 | 23184 |     - |   166M |   0 |5814 |1300 |1314 | 150 | 24 |   1 |   0 | 1.955810e+05 | 1.973799e+05 |   0.92%| unknown
 time | node  | left  |LP iter|LP it/n|mem/heur|mdpt |vars |cons |rows |cuts |sepa|confs|strbr|  dualbound   | primalbound  |  gap   | compl. 
 26.5s|     1 |     0 | 23184 |     - |   166M |   0 |5814 |1299 |1314 | 150 | 26 |   1 |   0 | 1.955810e+05 | 1.973799e+05 |   0.92%| unknown
 26.6s|     1 |     0 | 23192 |     - |   166M |   0 |5814 |1299 |1316 | 152 | 27 |   1 |   0 | 1.955810e+05 | 1.973799e+05 |   0.92%| unknown
 26.7s|     1 |     0 | 23196 |     - |   166M |   0 |5814 |1299 |1286 | 153 | 28 |   1 |   0 | 1.955810e+05 | 1.973799e+05 |   0.92%| unknown
 40.1s|     1 |     2 | 26518 |     - |   166M |   0 |5814 |1305 |1286 | 153 | 30 |1658 |  19 | 1.958871e+05 | 1.973799e+05 |   0.76%| unknown
(run 2, node 1) restarting after 11 global fixings of integer variables

(restart) converted 97 cuts from the global cut pool into linear constraints

presolving:
(round 1, fast)       374 del vars, 0 del conss, 0 add conss, 21 chg bounds, 0 chg sides, 1 chg coeffs, 0 upgd conss, 0 impls, 0 clqs
(round 2, exhaustive) 374 del vars, 0 del conss, 0 add conss, 21 chg bounds, 0 chg sides, 1 chg coeffs, 3 upgd conss, 0 impls, 0 clqs
presolving (3 rounds: 3 fast, 2 medium, 2 exhaustive):
 374 deleted vars, 1 deleted constraints, 0 added constraints, 21 tightened bounds, 0 added holes, 0 changed sides, 4 changed coefficients
 0 implications, 0 cliques
presolved problem has 5440 variables (160 bin, 0 int, 0 impl, 5280 cont) and 1401 constraints
   1389 constraints of type <linear>
     12 constraints of type <logicor>
Presolving Time: 3.62
transformed 65/100 original solutions to the transformed problem space

 time | node  | left  |LP iter|LP it/n|mem/heur|mdpt |vars |cons |rows |cuts |sepa|confs|strbr|  dualbound   | primalbound  |  gap   | compl. 
 42.5s|     1 |     0 | 32679 |     - |   167M |   0 |5440 |1401 |1395 |   0 |  0 |1658 |  19 | 1.958871e+05 | 1.973799e+05 |   0.76%| unknown
 42.6s|     1 |     0 | 32679 |     - |   167M |   0 |5440 |1401 |1395 |   0 |  0 |1658 |  19 | 1.958871e+05 | 1.973799e+05 |   0.76%| unknown
 43.0s|     1 |     0 | 33494 |     - |   168M |   0 |5440 |1401 |1406 |  11 |  1 |1658 |  19 | 1.958871e+05 | 1.973799e+05 |   0.76%| unknown
 43.0s|     1 |     0 | 33494 |     - |   168M |   0 |5440 |1401 |1406 |  11 |  1 |1658 |  19 | 1.958871e+05 | 1.973799e+05 |   0.76%| unknown
 43.2s|     1 |     0 | 33501 |     - |   168M |   0 |5440 |1401 |1407 |  12 |  2 |1658 |  19 | 1.958871e+05 | 1.973799e+05 |   0.76%| unknown
 43.3s|     1 |     0 | 33501 |     - |   168M |   0 |5440 |1399 |1407 |  12 |  4 |1658 |  19 | 1.958871e+05 | 1.973799e+05 |   0.76%| unknown
 55.2s|     1 |     2 | 34812 |     - |   168M |   0 |5440 |1403 |1407 |  12 |  6 |4680 |  38 | 1.959099e+05 | 1.973799e+05 |   0.75%| unknown

SCIP Status        : problem is solved [optimal solution found]
Solving Time (sec) : 65.21
Solving Nodes      : 5 (total of 7 nodes in 3 runs)
Primal Bound       : +1.97379887720900e+05 (174 solutions)
Dual Bound         : +1.97379887720900e+05
Gap                : 0.00 %
Solve Status: optimal
Solve Time: 65.28 seconds
